# Solution for model grafting_srl_ilp
# Objective value = 6.0834929256944568e+00
Z_189_0_0 0
Z_189_0_1 0
Z_189_0_2 1
Z_189_0_3 0
Z_358_0_0 0
Z_358_0_1 0
Z_358_0_2 1
Z_358_0_3 0
Z_142_0_0 0
Z_142_0_1 0
Z_142_0_2 1
Z_142_0_3 0
Z_438_0_0 0
Z_438_0_1 0
Z_438_0_2 1
Z_438_0_3 0
Z_31_0_0 0
Z_31_0_1 0
Z_31_0_2 1
Z_31_0_3 0
Z_664_0_0 0
Z_664_0_1 0
Z_664_0_2 1
Z_664_0_3 0
Z_313_0_0 0
Z_313_0_1 0
Z_313_0_2 1
Z_313_0_3 0
Z_147_0_0 0
Z_147_0_1 0
Z_147_0_2 1
Z_147_0_3 0
